2595
4487
7672
12824
20449
31402
50992
65033
66228
67060
67513
67906
68148
68321
68488
68653
68796
68978
69108
69215
69335
69416
69549
69680
69802
69932
70043
70116
70240
70382
70501
70606
70736
70935
71127
71386
71568
71756
71965
72111
72275
72377
72498
72592
72671
72763
72864
72916
73017
73085
73159
73271
73383
73478
73594
73727
73881
73996
74108
74204
74266
74328
74386
74467
74525
74570
74659
74724
74790
74870
74932
74978
75035
75087
75150
75218
75280
75350
75437
75535
75616
75665
75728
75810
75896
75976
76023
76097
76186
76261
76352
76451
76521
76568
76629
76682
76769
76819
76883
76903
